(set-logic HORN)
(declare-fun state (Int (Array Int Int) (Array Int Int) (Array Int Int) (Array Int Int) Int Int (Array Int Int) (Array Int Int) Int Int Int Int Int Int Int Int Int Int Int Int Int Int Int Int Int Bool Bool Bool Bool Bool (Array Int Int)) Bool)
(assert (forall ((|A_20| Int) (|B1_10| (Array Int Int)) (|C_20| (Array Int Int)) (|D_20| (Array Int Int)) (|E_20| (Array Int Int)) (|F_20| Int) (|G_20| Int) (|H_20| (Array Int Int)) (|I_20| (Array Int Int)) (|J_20| Int) (|K_20| Int) (|L_20| Int) (|C1_5| Int) (|D1_3| Int) (|O_20| Int) (|P_20| Int) (|Q_20| Int) (|R_20| Int) (|E1_0| Int) (|T_20| Int) (|F1_0| Int) (|V_20| Int) (|W_20| Int) (|X_20| Int) (|G1_0| Int) (|Z_20| Int) (|A1_20| Bool) (|.loc.5| Bool) (|.loc.6| Bool) (|.loc.7| Bool) (|.loc.8| Bool) (|B1_0| (Array Int Int)) (|.x.750| Int) (|.x.748| (Array Int Int)) (|.x.746| Int) (|.x.744| (Array Int Int)) (|.x.740| Int) (|.x.742| (Array Int Int)) (|.x.757| Int) (|.x.760| Int) (|.x.766| Bool) (|.x.741| (Array Int Int)) (|.x.754| Int) (|.x.761| Int) (|.x.763| Int) (|.x.765| Int) (|.x.752| Int) (|.x.753| Int) (|.x.758| Int) (|.x.764| Int) (|.x.759| Int) (|.loc.10| Bool) (|.loc.11| Bool) (|.loc.12| Bool) (|.loc.9| Bool) (|.x.756| Int) (|.x.762| Int) (|.x.743| (Array Int Int)) (|.x.747| (Array Int Int)) (|.x.745| Int) (|.x.749| Int) (|.x.751| Int) (|.x.755| Int) (|.xtv.1| (Array Int Int))) (=> (and (and (and .loc.7 (and .loc.5 .loc.6)) (not .loc.8)) (and (and (and (and (and (= D_20 E_20) (not A1_20)) (= J_20 K_20)) (= F_20 G_20)) (= H_20 I_20)) (= B1_10 C_20))) (state |A_20| |B1_10| |C_20| |D_20| |E_20| |F_20| |G_20| |H_20| |I_20| |J_20| |K_20| |L_20| |C1_5| |D1_3| |O_20| |P_20| |Q_20| |R_20| |E1_0| |T_20| |F1_0| |V_20| |W_20| |X_20| |G1_0| |Z_20| |A1_20| |.loc.5| |.loc.6| |.loc.7| |.loc.8| |B1_0|))))
(assert (forall ((|A_20| Int) (|B1_10| (Array Int Int)) (|C_20| (Array Int Int)) (|D_20| (Array Int Int)) (|E_20| (Array Int Int)) (|F_20| Int) (|G_20| Int) (|H_20| (Array Int Int)) (|I_20| (Array Int Int)) (|J_20| Int) (|K_20| Int) (|L_20| Int) (|C1_5| Int) (|D1_3| Int) (|O_20| Int) (|P_20| Int) (|Q_20| Int) (|R_20| Int) (|E1_0| Int) (|T_20| Int) (|F1_0| Int) (|V_20| Int) (|W_20| Int) (|X_20| Int) (|G1_0| Int) (|Z_20| Int) (|A1_20| Bool) (|.loc.5| Bool) (|.loc.6| Bool) (|.loc.7| Bool) (|.loc.8| Bool) (|B1_0| (Array Int Int)) (|.x.750| Int) (|.x.748| (Array Int Int)) (|.x.746| Int) (|.x.744| (Array Int Int)) (|.x.740| Int) (|.x.742| (Array Int Int)) (|.x.757| Int) (|.x.760| Int) (|.x.766| Bool) (|.x.741| (Array Int Int)) (|.x.754| Int) (|.x.761| Int) (|.x.763| Int) (|.x.765| Int) (|.x.752| Int) (|.x.753| Int) (|.x.758| Int) (|.x.764| Int) (|.x.759| Int) (|.loc.10| Bool) (|.loc.11| Bool) (|.loc.12| Bool) (|.loc.9| Bool) (|.x.756| Int) (|.x.762| Int) (|.x.743| (Array Int Int)) (|.x.747| (Array Int Int)) (|.x.745| Int) (|.x.749| Int) (|.x.751| Int) (|.x.755| Int) (|.xtv.1| (Array Int Int))) (=> (and (state |A_20| |B1_10| |C_20| |D_20| |E_20| |F_20| |G_20| |H_20| |I_20| |J_20| |K_20| |L_20| |C1_5| |D1_3| |O_20| |P_20| |Q_20| |R_20| |E1_0| |T_20| |F1_0| |V_20| |W_20| |X_20| |G1_0| |Z_20| |A1_20| |.loc.5| |.loc.6| |.loc.7| |.loc.8| |B1_0|) (let ((.def_44 (not .loc.8))) (let ((.def_89 (= O_20 .x.754))) (let ((.def_92 (= V_20 .x.761))) (let ((.def_95 (= X_20 .x.763))) (let ((.def_98 (= Z_20 .x.765))) (let ((.def_100 (= A1_20 .x.766))) (let ((.def_105 (= .x.754 0))) (let ((.def_108 (not .loc.7))) (let ((.def_117 (select D_20 D1_3))) (let ((.def_122 (<= P_20 T_20))) (let ((.def_123 (not .def_122))) (let ((.def_128 (select D_20 E1_0))) (let ((.def_131 (select .def_128 (+ C1_5 (+ (* 4 T_20) (* 4 (* P_20 Q_20))))))) (let ((.def_139 (or A1_20 (and (and (and (= .x.761 (select .def_117 (+ (* 4 T_20) (+ G1_0 (* 4 (* P_20 Q_20)))))) (and (= .x.754 .x.763) .def_123)) (= .x.765 .def_131)) (= .x.763 (ite (= .x.761 .x.765) 1 0)))))) (let ((.def_141 (= B1_10 .x.741))) (let ((.def_144 (= C1_5 .x.752))) (let ((.def_147 (= D1_3 .x.753))) (let ((.def_149 (= R_20 .x.757))) (let ((.def_152 (= E1_0 .x.758))) (let ((.def_154 (= F1_0 .x.760))) (let ((.def_157 (= G1_0 .x.764))) (let ((.def_161 (= T_20 .x.759))) (let ((.def_170 (not .loc.9))) (let ((.def_176 (= (+ T_20 (* (- 1) .x.759)) (- 1)))) (let ((.def_190 (not .loc.12))) (let ((.def_192 (not .loc.11))) (let ((.def_194 (not .loc.10))) (let ((.def_196 (not .loc.5))) (let ((.def_200 (and A1_20 .def_89))) (let ((.def_225 (and .def_100 (and .def_98 (and .def_95 (and .def_92 (and .def_89 .def_161))))))) (let ((.def_226 (and .loc.7 .def_225))) (let ((.def_240 (<= P_20 Q_20))) (let ((.def_241 (or A1_20 .def_240))) (let ((.def_247 (and .def_100 (and .def_98 (and .def_95 (and .def_89 .def_92)))))) (let ((.def_263 (= .x.759 0))) (let ((.def_265 (or A1_20 (and (not .def_240) .def_263)))) (let ((.def_268 (not .loc.6))) (let ((.def_270 (= Q_20 .x.756))) (let ((.def_291 (or A1_20 (= (+ Q_20 (* (- 1) .x.756)) (- 1))))) (let ((.def_336 (and .loc.5 .def_247))) (let ((.def_351 (= .x.756 0))) (let ((.def_353 (or A1_20 (and .def_263 .def_351)))) (let ((.def_361 (and .def_100 (and .def_98 (and .def_95 (and .def_92 (and .def_161 (and .def_200 .def_270)))))))) (let ((.def_362 (and .loc.5 .def_361))) (let ((.def_378 (and .def_89 .def_270))) (let ((.def_383 (and .def_100 (and .def_98 (and .def_95 (and .def_92 (and .def_161 .def_378))))))) (let ((.def_384 (and .loc.5 .def_383))) (let ((.def_399 (or A1_20 .def_122))) (let ((.def_499 (= W_20 .x.762))) (let ((.def_501 (= D_20 .x.743))) (let ((.def_531 (and A1_20 .def_501))) (let ((.def_556 (and .def_89 .def_501))) (let ((.def_557 (and .def_270 .def_556))) (let ((.def_627 (= H_20 .x.747))) (let ((.def_629 (= F_20 .x.745))) (let ((.def_632 (= J_20 .x.749))) (let ((.def_633 (and (and .def_627 .def_629) .def_632))) (let ((.def_635 (= L_20 .x.751))) (let ((.def_638 (= P_20 .x.755))) (let ((.def_671 (store B1_0 .x.753 1))) (let ((.def_734 (and .def_270 (and .def_638 (and .def_89 (and .def_635 (and .def_632 (and .def_627 (and .def_501 .def_629))))))))) (and (and (= K_20 .x.750) (and (= I_20 .x.748) (and (= G_20 .x.746) (and (= E_20 .x.744) (and (= A_20 .x.740) (= C_20 .x.742)))))) (or (or (or (or (or (and (or (or (or (or (or (and (or (or (or (or (or (or (or (or (or (or (or (or (and (or (or (or (or (and (or (and .loc.8 (and .loc.7 (and (or (= .x.757 .x.760) .x.766) (and (and (and (and (and (or A1_20 (and (= (store (store B1_10 D1_3 0) E1_0 0) .x.741) (= .x.760 0))) .def_89) .def_92) .def_95) .def_98) .def_100)))) (and (and (and (and (and (and (and (and (and (or A1_20 .def_105) (and (and .def_44 .x.766) .def_108)) .def_139) .def_141) .def_144) .def_147) .def_149) .def_152) .def_154) .def_157)) (and (and (and (and (and .loc.5 .def_161) .loc.10) .loc.11) .loc.12) .def_170)) (and (or A1_20 .def_176) (and (and (and (and (and .def_157 (and .def_154 (and .def_152 (and .def_149 (and .def_147 (and .def_144 (and .def_141 (and .def_108 (and .def_44 (and .loc.9 (and .def_100 (and .def_89 .def_95)))))))))))) .def_190) .def_192) .def_194) .def_196))) (and .def_196 (and .def_194 (and .def_157 (and .def_154 (and .def_152 (and .def_149 (and .def_147 (and .def_144 (and .def_141 (and .loc.12 (and .loc.11 (and .loc.9 (and .loc.8 (and .loc.7 (and .def_100 (and .def_98 (and .def_95 (and .def_92 (and .def_161 .def_200)))))))))))))))))))) (and (and .def_196 (and .def_194 (and .def_157 (and .def_154 (and .def_152 (and .def_149 (and .def_147 (and .def_144 (and .def_141 (and .loc.12 (and .loc.11 (and .loc.9 (and .loc.8 .def_226))))))))))))) .def_241)) (and (and .def_196 (and .def_194 (and .def_192 (and .def_190 (and .def_157 (and .def_154 (and .def_152 (and .def_149 (and .def_147 (and .def_144 (and .def_141 (and .loc.9 (and .loc.8 (and .loc.7 .def_247)))))))))))))) .def_265)) (and .def_268 .def_270)) (and (and .def_196 (and .def_194 (and .def_157 (and .def_154 (and .def_152 (and .def_149 (and .def_147 (and .def_144 (and .def_141 (and .def_108 (and .def_44 (and .def_170 (and .loc.12 (and .loc.11 (and .loc.6 .def_225))))))))))))))) .def_291)) (and (or .x.766 (not .def_105)) (and .def_194 (and .def_192 (and .def_190 (and .def_157 (and .def_154 (and .def_152 (and .def_149 (and .def_147 (and .def_144 (and .def_141 (and .def_139 (and .def_108 (and .def_44 (and .def_170 (and .def_268 (and .loc.5 (and .def_100 (and .def_161 .def_270)))))))))))))))))))) (and .def_194 (and .def_192 (and .def_190 (and .def_157 (and .def_154 (and .def_152 (and .def_149 (and .def_147 (and .def_144 (and .def_141 (and .def_139 (and .def_108 (and .def_44 (and .def_170 (and .def_268 (and .loc.5 (and .def_161 (and .def_270 (and A1_20 .x.766)))))))))))))))))))) (and (and .def_194 (and .def_157 (and .def_154 (and .def_152 (and .def_149 (and .def_147 (and .def_144 (and .def_141 (and .def_108 (and .def_170 (and .loc.12 (and .loc.11 (and .loc.8 (and .loc.6 .def_336)))))))))))))) .def_353)) (and .def_192 (and .def_190 (and .def_157 (and .def_154 (and .def_152 (and .def_149 (and .def_147 (and .def_144 (and .def_141 (and .def_108 (and .def_44 (and .def_170 (and .loc.10 (and .def_268 .def_362))))))))))))))) (and (and .def_192 (and .def_190 (and .def_157 (and .def_154 (and .def_152 (and .def_149 (and .def_147 (and .def_144 (and .def_141 (and .def_108 (and .def_44 (and .def_170 (and .loc.10 (and .def_268 .def_384)))))))))))))) .def_399)) (and .def_196 (and .def_192 (and .def_157 (and .def_154 (and .def_152 (and .def_149 (and .def_147 (and .def_144 (and .def_141 (and .def_108 (and .loc.12 (and .loc.10 (and .loc.9 (and .loc.8 (and .loc.6 .def_361)))))))))))))))) (and .def_241 (and .def_196 (and .def_192 (and .def_157 (and .def_154 (and .def_152 (and .def_149 (and .def_147 (and .def_144 (and .def_141 (and .def_108 (and .loc.12 (and .loc.10 (and .loc.9 (and .loc.8 (and .loc.6 .def_383))))))))))))))))) (and .def_291 (and .def_196 (and .def_192 (and .def_157 (and .def_154 (and .def_152 (and .def_149 (and .def_147 (and .def_144 (and .def_141 (and .def_44 (and .def_170 (and .loc.12 (and .loc.10 (and .def_226 .def_268)))))))))))))))) (and .def_353 (and .def_192 (and .def_157 (and .def_154 (and .def_152 (and .def_149 (and .def_147 (and .def_144 (and .def_141 (and .def_108 (and .def_170 (and .loc.12 (and .loc.10 (and .def_268 (and .loc.8 .def_336)))))))))))))))) (and .def_194 (and .def_190 (and .def_157 (and .def_154 (and .def_152 (and .def_149 (and .def_147 (and .def_144 (and .def_141 (and .def_108 (and .def_44 (and .def_170 (and .loc.11 (and .loc.6 .def_362))))))))))))))) (and .def_399 (and .def_194 (and .def_190 (and .def_157 (and .def_154 (and .def_152 (and .def_149 (and .def_147 (and .def_144 (and .def_141 (and .def_108 (and .def_44 (and .def_170 (and .loc.11 (and .loc.6 .def_384)))))))))))))))) (and .def_499 .def_501)) (and (or A1_20 (and (= .x.743 (store D_20 D1_3 (store .def_117 (+ (* 4 T_20) (+ G1_0 (* 4 (* P_20 Q_20)))) .def_131))) (and .def_123 .def_176))) (and .def_192 (and .def_190 (and .def_157 (and .def_154 (and .def_152 (and .def_149 (and .def_147 (and .def_144 (and .def_141 (and .def_108 (and .def_44 (and .loc.10 (and .loc.9 (and .loc.6 (and .loc.5 (and .def_100 (and .def_98 (and .def_95 (and .def_92 .def_378))))))))))))))))))))) (and .def_196 (and .def_194 (and .def_192 (and .def_157 (and .def_154 (and .def_152 (and .def_149 (and .def_147 (and .def_144 (and .def_141 (and .def_108 (and .loc.12 (and .loc.9 (and .def_268 (and .loc.8 (and .def_100 (and .def_98 (and .def_95 (and .def_499 (and .def_92 (and .def_161 (and .def_270 (and .def_89 .def_531)))))))))))))))))))))))) (and .def_241 (and .def_196 (and .def_194 (and .def_192 (and .def_157 (and .def_154 (and .def_152 (and .def_149 (and .def_147 (and .def_144 (and .def_141 (and .def_108 (and .loc.12 (and .loc.9 (and .def_268 (and .loc.8 (and .def_100 (and .def_98 (and .def_95 (and .def_499 (and .def_92 (and .def_161 .def_557))))))))))))))))))))))) (and .def_265 (and .def_196 (and .def_192 (and .def_190 (and .def_157 (and .def_154 (and .def_152 (and .def_149 (and .def_147 (and .def_144 (and .def_141 (and .def_108 (and .loc.10 (and .loc.9 (and .loc.8 (and .loc.6 (and .def_100 (and .def_98 (and .def_95 (and .def_499 (and .def_92 .def_557)))))))))))))))))))))) (and .def_291 (and .def_196 (and .def_194 (and .def_192 (and .def_157 (and .def_154 (and .def_152 (and .def_149 (and .def_147 (and .def_144 (and .def_141 (and .def_44 (and .def_170 (and .loc.12 (and .loc.7 (and .loc.6 (and .def_100 (and .def_98 (and .def_95 (and .def_499 (and .def_92 (and .def_161 .def_556))))))))))))))))))))))) (and (and .def_633 .def_635) .def_638)) (and (or A1_20 (and (and (= .x.749 0) (= .x.745 0)) (= B1_0 (store B1_10 0 0)))) (and (or .x.766 (and (and (and (and (and (and (and (and (and .def_351 (and .def_263 (and (and (not (<= .x.740 .x.753)) (not (<= .x.740 .x.758))) (= .x.752 0)))) (= .x.755 1000)) (= .x.764 0)) (not (= .x.758 0))) (not (= .x.753 0))) (= (select B1_0 .x.753) 0)) (= (select .def_671 .x.758) 0)) (= .x.747 (store (store H_20 .x.753 (* 4 (* .x.755 .x.755))) .x.758 (* 4 (* .x.755 .x.755))))) (= .x.741 (store .def_671 .x.758 1)))) (and .def_194 (and .def_192 (and .def_149 (and .def_44 (and .def_170 (and .loc.12 (and .loc.7 (and .loc.6 (and .loc.5 (and .def_100 (and .def_95 .def_556)))))))))))))) (and .def_190 (and .def_157 (and .def_154 (and .def_152 (and .def_149 (and .def_147 (and .def_144 (and .def_141 (and .def_44 (and .def_170 (and .loc.11 (and .loc.10 (and .def_268 (and .loc.7 (and .loc.5 (and .def_100 (and .def_98 (and .def_95 (and .def_499 (and .def_92 (and .def_161 (and .def_270 (and .def_638 (and .def_89 (and .def_635 (and .def_632 (and .def_627 (and .def_531 .def_629))))))))))))))))))))))))))))) (and .def_399 (and .def_190 (and .def_157 (and .def_154 (and .def_152 (and .def_149 (and .def_147 (and .def_144 (and .def_141 (and .def_44 (and .def_170 (and .loc.11 (and .loc.10 (and .def_268 (and .loc.7 (and .loc.5 (and .def_100 (and .def_98 (and .def_95 (and .def_499 (and .def_92 (and .def_161 .def_734))))))))))))))))))))))) (and (or A1_20 (and (= .x.743 (store D_20 E1_0 (store .def_128 (+ C1_5 (+ (* 4 T_20) (* 4 (* P_20 Q_20)))) L_20))) (and .def_176 (and (<= (- 2147483648) L_20) (and .def_123 (<= L_20 2147483647)))))) (and .def_194 (and .def_190 (and .def_157 (and .def_154 (and .def_152 (and .def_149 (and .def_147 (and .def_144 (and .def_141 (and .def_44 (and .loc.11 (and .loc.9 (and .def_268 (and .loc.7 (and .loc.5 (and .def_100 (and .def_98 (and .def_95 (and .def_499 (and .def_92 (and .def_270 (and .def_638 (and .def_89 .def_633))))))))))))))))))))))))) (and .def_265 (and .def_196 (and .def_194 (and .def_190 (and .def_157 (and .def_154 (and .def_152 (and .def_149 (and .def_147 (and .def_144 (and .def_141 (and .def_108 (and .loc.11 (and .loc.9 (and .def_268 (and .loc.8 (and .def_100 (and .def_98 (and .def_95 (and .def_499 (and .def_92 .def_734))))))))))))))))))))))))))))))))))))))))))))))))))))))))))))))))))))))))))))))))))))) (state |.x.740| |.x.741| |.x.742| |.x.743| |.x.744| |.x.745| |.x.746| |.x.747| |.x.748| |.x.749| |.x.750| |.x.751| |.x.752| |.x.753| |.x.754| |.x.755| |.x.756| |.x.757| |.x.758| |.x.759| |.x.760| |.x.761| |.x.762| |.x.763| |.x.764| |.x.765| |.x.766| |.loc.9| |.loc.10| |.loc.11| |.loc.12| |.xtv.1|))))
(assert (forall ((|A_20| Int) (|B1_10| (Array Int Int)) (|C_20| (Array Int Int)) (|D_20| (Array Int Int)) (|E_20| (Array Int Int)) (|F_20| Int) (|G_20| Int) (|H_20| (Array Int Int)) (|I_20| (Array Int Int)) (|J_20| Int) (|K_20| Int) (|L_20| Int) (|C1_5| Int) (|D1_3| Int) (|O_20| Int) (|P_20| Int) (|Q_20| Int) (|R_20| Int) (|E1_0| Int) (|T_20| Int) (|F1_0| Int) (|V_20| Int) (|W_20| Int) (|X_20| Int) (|G1_0| Int) (|Z_20| Int) (|A1_20| Bool) (|.loc.5| Bool) (|.loc.6| Bool) (|.loc.7| Bool) (|.loc.8| Bool) (|B1_0| (Array Int Int)) (|.x.750| Int) (|.x.748| (Array Int Int)) (|.x.746| Int) (|.x.744| (Array Int Int)) (|.x.740| Int) (|.x.742| (Array Int Int)) (|.x.757| Int) (|.x.760| Int) (|.x.766| Bool) (|.x.741| (Array Int Int)) (|.x.754| Int) (|.x.761| Int) (|.x.763| Int) (|.x.765| Int) (|.x.752| Int) (|.x.753| Int) (|.x.758| Int) (|.x.764| Int) (|.x.759| Int) (|.loc.10| Bool) (|.loc.11| Bool) (|.loc.12| Bool) (|.loc.9| Bool) (|.x.756| Int) (|.x.762| Int) (|.x.743| (Array Int Int)) (|.x.747| (Array Int Int)) (|.x.745| Int) (|.x.749| Int) (|.x.751| Int) (|.x.755| Int) (|.xtv.1| (Array Int Int))) (=> (state |A_20| |B1_10| |C_20| |D_20| |E_20| |F_20| |G_20| |H_20| |I_20| |J_20| |K_20| |L_20| |C1_5| |D1_3| |O_20| |P_20| |Q_20| |R_20| |E1_0| |T_20| |F1_0| |V_20| |W_20| |X_20| |G1_0| |Z_20| |A1_20| |.loc.5| |.loc.6| |.loc.7| |.loc.8| |B1_0|) (not (and A1_20 (and .loc.8 (and .loc.7 (and .loc.6 (not .loc.5)))))))))
(check-sat)
